7,1	0,0	14,4	16,7	0,0	0,0	0,0	0,0	0,0	17,8
6,9	15,5	0,0	10,6	14,5	0,0	0,0	13,1	0,0	0,0
0,0	0,0	13,7	0,0	18,3	6,1	0,0	0,0	19,6	0,0
17,0	0,0	11,9	0,0	0,0	0,0	13,1	0,0	0,0	0,0
0,0	13,9	0,0	12,9	8,8	0,0	0,0	8,2	0,0	0,0
0,0	15,0	20,0	0,0	18,4	12,9	0,0	0,0	11,6	0,0
0,0	14,7	0,0	6,8	0,0	0,0	6,0	0,0	0,0	12,5
17,6	0,0	8,5	0,0	0,0	0,0	0,0	0,0	0,0	13,5
0,0	10,6	0,0	9,7	10,8	0,0	0,0	6,7	0,0	0,0
0,0	0,0	10,0	0,0	0,0	14,7	18,8	0,0	0,0	19,6
									
3,6	2,8	4,1	3,9	4,1	2,7	4,4	4,0	4,1	4,2
